decision_x1=[0,4];
decision_x2=[0,4];
decision_x3=[0,4];
decision_x4=[0,4];
decision_x5=[0,4];
decision_x6=[0,4];
random_y1=[0,4];
random_y2=[0,4];
random_y3=[0,4];
constraint_x2_x1=[
0,1,7.1|
0,2,3.9|
0,3,1.2|
0,4,9.5|
1,0,1.4|
1,2,6.6|
1,3,1.5|
1,4,6.7|
2,0,0.28|
2,1,4.8|
2,3,9.2|
2,4,9.5|
3,0,0.53|
3,1,9.4|
3,2,6.3|
3,4,5.5|
4,0,7.6|
4,1,5.1|
4,2,9.7|
4,3,6.1|
];
constraint_x4_x2=[
0,1,7.4|
0,2,9.2|
0,3,1.5|
0,4,9.2|
1,0,3.4|
1,2,8.8|
1,3,8.7|
1,4,9.6|
2,0,5.2|
2,1,1.8|
2,3,4.6|
2,4,0.84|
3,0,4.6|
3,1,8.2|
3,2,9.6|
3,4,2|
4,0,3.1|
4,1,3|
4,2,6.3|
4,3,9|
];
constraint_x4_x3=[
0,1,0.92|
0,2,1.9|
0,3,5.8|
0,4,6.1|
1,0,9.2|
1,2,1.3|
1,3,0.13|
1,4,1.1|
2,0,2.7|
2,1,9.7|
2,3,8.4|
2,4,8.4|
3,0,8.2|
3,1,2.7|
3,2,2.8|
3,4,6.5|
4,0,1|
4,1,9.9|
4,2,7.8|
4,3,0.91|
];
constraint_x5_x1=[
0,1,0.55|
0,2,4.8|
0,3,9.8|
0,4,5.7|
1,0,5.4|
1,2,5.6|
1,3,5.3|
1,4,0.69|
2,0,1.1|
2,1,4.5|
2,3,4.5|
2,4,1.8|
3,0,0.5|
3,1,4.1|
3,2,8.1|
3,4,1.8|
4,0,2.1|
4,1,4.2|
4,2,0.75|
4,3,5.2|
];
constraint_x5_x4=[
0,1,4.8|
0,2,9.8|
0,3,7.1|
0,4,6.2|
1,0,9.6|
1,2,5.3|
1,3,0.67|
1,4,9.8|
2,0,4.9|
2,1,3.3|
2,3,2.3|
2,4,7.8|
3,0,5|
3,1,6.9|
3,2,7.3|
3,4,8.5|
4,0,4.3|
4,1,1.4|
4,2,0.75|
4,3,7.2|
];
constraint_x6_x2=[
0,1,4.2|
0,2,2.6|
0,3,3.4|
0,4,1|
1,0,8.7|
1,2,7.1|
1,3,3.5|
1,4,6.1|
2,0,5.9|
2,1,3.5|
2,3,5|
2,4,3.6|
3,0,0.94|
3,1,9.5|
3,2,7.2|
3,4,6.7|
4,0,0.15|
4,1,8.7|
4,2,5.5|
4,3,5.4|
];
constraint_x6_x3=[
0,1,8.2|
0,2,9.8|
0,3,5.7|
0,4,3.2|
1,0,5.2|
1,2,8.2|
1,3,9.7|
1,4,2.7|
2,0,7.4|
2,1,8.5|
2,3,8.7|
2,4,4.9|
3,0,4.6|
3,1,7.3|
3,2,3|
3,4,8.7|
4,0,6.8|
4,1,3.9|
4,2,7.5|
4,3,6.4|
];
constraint_x6_x5=[
0,1,0.15|
0,2,3.9|
0,3,4.5|
0,4,3|
1,0,1.6|
1,2,0.21|
1,3,2.5|
1,4,4.1|
2,0,6.1|
2,1,7.8|
2,3,7.9|
2,4,2.4|
3,0,8.9|
3,1,1.7|
3,2,0.56|
3,4,7|
4,0,6.7|
4,1,2.2|
4,2,3.1|
4,3,2.4|
];
constraint_x1_y1=[
0,0,1.1|
0,1,1.3|
0,2,2.1|
0,3,3.2|
0,4,0.13|
1,0,2.7|
1,1,4.1|
1,2,9|
1,3,7.5|
1,4,8.6|
2,0,9.3|
2,1,1.5|
2,2,4.6|
2,3,5.1|
2,4,0.9|
3,0,8.9|
3,1,2|
3,2,2.1|
3,3,4.6|
3,4,0.9|
4,0,8.1|
4,1,7.4|
4,2,9|
4,3,0.81|
4,4,2.1|
];
constraint_x2_y2=[
0,0,0.58|
0,1,7.8|
0,2,6.8|
0,3,9.7|
0,4,9.7|
1,0,4.2|
1,1,0.46|
1,2,0.49|
1,3,6.4|
1,4,2.6|
2,0,5.7|
2,1,0.3|
2,2,4.7|
2,3,5|
2,4,7.6|
3,0,9.2|
3,1,3.5|
3,2,2.6|
3,3,9.6|
3,4,9|
4,0,5|
4,1,3.6|
4,2,8.7|
4,3,3.1|
4,4,5.3|
];
constraint_x3_y3=[
0,0,6.3|
0,1,2.8|
0,2,2.1|
0,3,8.1|
0,4,3.3|
1,0,4.2|
1,1,1.2|
1,2,6|
1,3,7.7|
1,4,2.3|
2,0,8.7|
2,1,3.8|
2,2,8.5|
2,3,4.9|
2,4,9|
3,0,5|
3,1,4.6|
3,2,8.3|
3,3,3.5|
3,4,4.5|
4,0,3.6|
4,1,9.1|
4,2,8|
4,3,5.3|
4,4,1.6|
];
initial_distribution_y1=[0.094,0.19,0.35,0.16,0.2];
initial_distribution_y2=[0.22,0.38,0.085,0.12,0.19];
initial_distribution_y3=[0.29,0.28,0.11,0.045,0.27];
transition_y1=[
0.27,0.079,0.19,0.26,0.2|
0.18,0.38,0.078,0.15,0.22|
0.35,0.0094,0.29,0.19,0.15|
0.024,0.39,0.21,0.094,0.28|
0.089,0.23,0.3,0.29,0.094|
];
transition_y2=[
0.075,0.24,0.19,0.32,0.18|
0.022,0.33,0.23,0.21,0.21|
0.12,0.63,0.18,0.02,0.058|
0.077,0.3,0.16,0.31,0.15|
0.052,0.35,0.36,0.17,0.068|
];
transition_y3=[
0.24,0.17,0.24,0.07,0.28|
0.26,0.31,0.099,0.27,0.054|
0.28,0.21,0.25,0.049,0.22|
0.22,0.011,0.24,0.3,0.23|
0.16,0.18,0.12,0.34,0.2|
];
